000 000 000 000 000 000 -99 -99 -99 -99 -99 -99 -99 000 000 -99 000 000 -99 000 000 -99 -99 000 000 000 000 000 -99 -99 -99
-99 000 000 000 000 000 000 -99 -99 -99 -99 -99 -99 000 000 -99 000 000 -99 000 000 -99 000 000 000 -99 000 000 -99 -99 -99
000 000 000 000 000 000 000 -99 -99 -99 -99 -99 -99 000 000 000 000 000 -99 -99 -99 000 000 000 000 -99 000 000 000 -99 -99
-99 -99 000 000 000 000 000 000 -99 000 -99 000 -99 -99 000 000 -99 -99 -99 -99 -99 -99 000 000 000 -99 000 000 000 -99 -99
000 -99 000 000 000 000 000 000 000 000 -99 000 000 000 -99 000 -99 -99 -99 -99 000 000 000 000 000 000 -99 -99 000 -99 -99
000 000 -99 000 000 000 000 000 000 000 -99 -99 000 -99 -99 000 000 -99 -99 -99 000 000 000 000 000 000 -99 -99 -99 -99 -99
000 000 000 000 000 000 000 000 000 000 -99 -99 000 000 -99 000 000 -99 -99 -99 000 000 000 000 000 000 -99 -99 -99 -99 -99
000 000 000 000 000 000 000 -99 000 000 -99 -99 -99 -99 -99 -99 000 000 000 -99 000 000 000 000 000 -99 -99 -99 -99 000 000
000 000 000 000 000 000 000 -99 000 000 -99 -99 -99 -99 -99 -99 -99 000 000 -99 000 000 000 000 000 -99 000 000 000 000 000
000 000 000 000 000 000 000 000 -99 000 -99 000 -99 -99 -99 -99 -99 000 000 000 000 000 000 -99 -99 -99 000 000 000 000 000
000 000 000 000 000 -99 000 000 000 000 000 000 -99 -99 -99 -99 -99 000 000 000 -99 000 000 -99 -99 -99 000 000 000 000 000
000 000 -99 000 000 000 000 000 000 000 000 000 000 -99 -99 -99 000 000 000 000 000 -99 -99 000 000 000 000 000 000 000 000
000 000 000 000 000 000 000 000 000 000 000 000 000 -99 -99 -99 000 000 000 000 000 -99 -99 -99 000 000 000 000 000 000 000
000 000 000 000 000 000 000 000 000 000 000 000 000 -99 -99 -99 000 000 -99 000 000 -99 000 -99 000 000 000 000 000 000 000
000 -99 000 000 000 000 000 002 001 000 000 000 -99 000 -99 -99 000 -99 000 000 -99 -99 000 -99 000 000 000 000 000 000 -99
000 -99 000 000 000 000 000 001 001 000 000 -99 -99 000 -99 -99 -99 000 000 -99 -99 -99 000 -99 000 000 000 000 000 000 -99
000 -99 000 000 000 000 000 001 001 000 000 000 000 000 000 -99 000 000 000 -99 -99 -99 000 000 000 000 000 000 000 000 000
000 000 000 -99 -99 000 000 000 000 000 000 000 000 000 000 -99 000 000 -99 -99 -99 -99 000 000 000 000 000 000 000 000 000
000 000 000 000 -99 000 000 000 000 000 000 001 000 000 000 000 000 000 000 -99 -99 000 000 -99 000 000 000 -99 000 000 -99
000 000 000 000 000 000 -99 -99 000 000 000 000 000 000 000 000 000 000 000 -99 -99 -99 000 -99 -99 -99 -99 -99 -99 -99 -99
000 000 000 000 000 000 -99 -99 000 000 000 000 000 000 -99 -99 000 000 000 -99 -99 000 000 -99 -99 -99 -99 -99 -99 -99 -99
000 000 000 000 000 000 000 000 000 000 000 000 000 000 -99 000 000 000 000 000 -99 000 000 -99 -99 -99 -99 -99 -99 -99 -99
000 000 000 000 000 000 000 000 000 000 000 -99 -99 -99 -99 000 000 000 000 000 000 000 000 -99 -99 -99 -99 -99 -99 -99 -99
000 000 000 000 000 000 000 000 000 003 000 -99 000 000 000 000 000 000 000 000 000 000 000 -99 -99 -99 -99 -99 -99 -99 000
000 000 000 000 000 000 000 000 001 006 000 -99 -99 000 000 000 000 000 000 000 000 000 000 -99 -99 -99 -99 -99 -99 -99 000
000 000 000 000 000 000 000 000 000 001 000 -99 -99 000 000 000 000 000 -99 000 000 -99 -99 -99 -99 -99 -99 -99 -99 -99 000
000 000 -99 000 000 000 000 000 000 000 000 -99 -99 -99 -99 -99 -99 000 -99 -99 -99 -99 -99 -99 -99 -99 -99 -99 -99 -99 000
000 000 000 000 000 000 000 000 000 000 -99 -99 -99 -99 000 000 000 000 -99 -99 -99 000 -99 -99 -99 -99 -99 -99 -99 -99 000
000 000 000 000 000 000 000 000 000 000 -99 -99 -99 -99 000 000 000 000 000 -99 000 000 -99 -99 -99 -99 -99 -99 -99 -99 000
000 000 000 000 000 000 000 000 000 000 -99 -99 -99 -99 000 000 000 000 000 000 000 000 -99 -99 -99 -99 -99 -99 -99 -99 -99
000 000 000 000 000 000 000 000 000 000 -99 -99 -99 000 000 000 000 000 000 000 -99 000 -99 000 000 000 -99 -99 -99 -99 -99
000 000 000 000 000 000 000 000 000 -99 -99 -99 -99 000 000 000 000 000 000 -99 -99 000 000 000 000 000 -99 -99 -99 -99 000
000 000 000 000 000 000 000 000 000 -99 -99 -99 -99 000 000 000 000 000 000 -99 -99 -99 000 000 000 000 -99 000 000 000 000
000 000 000 000 000 000 000 000 -99 -99 -99 -99 -99 000 000 000 000 000 000 -99 -99 000 000 000 000 000 000 000 000 000 000
000 000 000 000 000 000 000 000 -99 -99 -99 -99 000 000 000 000 000 000 -99 000 000 000 000 000 000 000 000 000 000 000 000
000 000 000 000 000 000 000 000 000 000 -99 -99 000 000 000 000 000 000 000 000 000 000 000 000 000 000 000 000 000 000 000
000 000 000 000 000 -99 000 000 000 000 -99 -99 000 000 000 000 000 000 000 000 000 000 000 000 000 000 000 000 000 -99 000
000 000 -99 000 000 -99 -99 000 000 000 -99 -99 -99 -99 000 000 000 000 000 000 000 000 000 000 000 000 000 000 000 -99 000
000 000 -99 -99 000 000 -99 -99 -99 -99 -99 -99 -99 -99 000 000 000 000 000 -99 000 000 000 000 000 000 000 000 -99 -99 -99
-99 -99 -99 000 000 -99 -99 -99 -99 -99 -99 -99 -99 000 000 000 000 000 -99 -99 000 -99 000 000 000 000 000 000 -99 -99 -99
-99 000 -99 000 000 -99 -99 -99 -99 -99 000 000 000 000 000 000 -99 -99 -99 -99 000 -99 000 000 -99 000 000 -99 -99 -99 -99
000 000 -99 -99 -99 -99 -99 -99 -99 -99 000 -99 000 000 000 000 000 -99 -99 -99 -99 -99 000 000 000 000 -99 -99 -99 -99 -99
000 000 -99 -99 -99 -99 -99 -99 -99 -99 -99 -99 000 000 000 000 000 -99 -99 000 -99 -99 -99 -99 -99 000 -99 -99 -99 -99 -99
000 000 -99 -99 -99 -99 -99 -99 -99 -99 -99 000 000 000 000 000 000 -99 000 000 -99 -99 -99 -99 -99 000 -99 -99 -99 -99 -99
000 -99 -99 -99 -99 -99 -99 -99 -99 -99 -99 -99 000 -99 000 001 000 -99 000 000 -99 -99 -99 -99 -99 -99 -99 -99 -99 -99 -99
-99 -99 -99 000 -99 -99 -99 -99 -99 -99 000 -99 -99 -99 000 001 000 -99 000 000 -99 -99 -99 -99 -99 -99 -99 -99 -99 -99 -99
-99 -99 -99 000 000 -99 -99 -99 -99 000 000 -99 -99 -99 000 -99 -99 -99 000 000 -99 -99 -99 -99 -99 -99 -99 -99 -99 -99 -99
-99 -99 -99 000 -99 -99 -99 -99 -99 000 000 -99 -99 -99 -99 -99 -99 000 000 000 000 000 000 -99 -99 -99 -99 -99 000 -99 -99
-99 -99 -99 -99 -99 -99 -99 -99 000 000 000 -99 -99 -99 -99 -99 -99 000 000 000 000 000 000 -99 -99 000 000 000 000 -99 -99
-99 -99 -99 -99 -99 -99 -99 -99 000 000 000 -99 -99 -99 -99 -99 -99 000 000 000 000 000 -99 -99 -99 -99 000 000 000 -99 -99
-99 -99 -99 -99 -99 -99 -99 -99 000 000 000 -99 -99 -99 -99 -99 -99 -99 000 000 000 000 000 -99 -99 -99 000 000 000 -99 -99
-99 -99 -99 -99 -99 -99 -99 -99 000 -99 -99 -99 -99 -99 -99 -99 -99 000 000 000 000 000 000 -99 -99 -99 -99 -99 -99 -99 -99
-99 -99 -99 -99 -99 -99 -99 -99 -99 -99 -99 -99 -99 -99 -99 -99 -99 000 000 000 000 000 -99 000 -99 -99 -99 -99 -99 -99 -99
-99 -99 -99 -99 -99 -99 -99 -99 -99 -99 -99 -99 -99 -99 -99 000 000 000 000 000 000 000 -99 -99 -99 -99 -99 -99 -99 -99 -99
-99 -99 -99 -99 -99 -99 -99 -99 -99 -99 -99 -99 -99 -99 -99 000 000 000 000 000 000 -99 -99 -99 -99 -99 -99 -99 -99 -99 -99
